\Problem name: IloCplex

Maximize
 obj: 234 y_76 + 231 y_6 + 231 y_10 + 223 y_81 + 210 y_39 + 200 y_36
      + 227 y_24 + 186 y_91 + 138 y_3 + 106 y_23 + 101 y_78 + 63 y_43
      + 153 y_63 + 142 y_13 + 203 y_53 + 216 y_33 + 117 y_21 + 194 y_28
      + 80 y_68 + 182 y_72 + 237 y_58 + 152 y_44
Subject To
 id6:   y_24 + y_78 + y_43 + y_53 + y_58 <= 1
 id9:   y_76 + y_13 + y_28 <= 1
 id12:  y_81 + y_3 + y_28 + y_72 + y_44 <= 1
 id15:  y_39 + y_78 + y_63 <= 1
 id18:  y_24 + y_3 + y_13 <= 1
 id21:  y_81 + y_3 + y_21 <= 1
 id24:  y_10 + y_81 + y_72 <= 1
 id27:  y_6 + y_10 + y_39 + y_63 + y_53 <= 1
 id30:  y_81 + y_23 + y_63 + y_53 <= 1
 id33:  y_91 + y_23 + y_33 + y_21 + y_28 + y_58 <= 1
 id36:  y_78 + y_21 + y_44 <= 1
 id39:  y_6 + y_10 + y_36 <= 1
 id42:  y_36 + y_78 + y_68 <= 1
 id45:  y_39 + y_91 + y_13 + y_33 <= 1
 id48:  y_36 + y_24 + y_63 <= 1
 id51:  y_36 + y_91 + y_72 + y_44 <= 1
 id54:  y_76 + y_6 + y_24 + y_58 <= 1
 id57:  y_76 + y_39 + y_33 <= 1
 id60:  y_10 + y_53 + y_68 <= 1
 id63:  y_76 + y_68 + y_58 + y_44 <= 1
 id67:  x_6_1 + x_10_1 + x_39_1 + x_91_1 + x_3_1 + x_23_1 + x_13_1 + x_53_1
        + x_28_1  = 1
 id71:  x_76_2 + x_81_2 + x_39_2 + x_36_2 + x_24_2 + x_91_2 + x_78_2 + x_21_2
        + x_58_2 + x_44_2  = 1
 id75:  x_81_3 + x_24_3 + x_78_3 + x_72_3 + x_44_3  = 1
 id79:  x_10_4 + x_3_4 + x_23_4 + x_43_4 + x_13_4 + x_68_4  = 1
 id83:  x_76_5 + x_6_5 + x_36_5 + x_43_5 + x_63_5 + x_33_5  = 1
 id93:  y_76 - x_76_2 - x_76_5  = 0
 id102: y_6 - x_6_1 - x_6_5  = 0
 id111: y_10 - x_10_1 - x_10_4  = 0
 id120: y_81 - x_81_2 - x_81_3  = 0
 id129: y_39 - x_39_1 - x_39_2  = 0
 id138: y_36 - x_36_2 - x_36_5  = 0
 id147: y_24 - x_24_2 - x_24_3  = 0
 id156: y_91 - x_91_1 - x_91_2  = 0
 id165: y_3 - x_3_1 - x_3_4  = 0
 id174: y_23 - x_23_1 - x_23_4  = 0
 id183: y_78 - x_78_2 - x_78_3  = 0
 id187: y_43 - x_43_4 - x_43_5  = 0
 id196: y_63 - x_63_5  = 0
 id205: y_13 - x_13_1 - x_13_4  = 0
 id214: y_53 - x_53_1  = 0
 id223: y_33 - x_33_5  = 0
 id232: y_21 - x_21_2  = 0
 id241: y_28 - x_28_1  = 0
 id250: y_68 - x_68_4  = 0
 id259: y_72 - x_72_3  = 0
 id268: y_58 - x_58_2  = 0
 id277: y_44 - x_44_2 - x_44_3  = 0
Bounds
 0 <= y_76 <= 1
 0 <= x_76_2 <= 1
 0 <= x_76_5 <= 1
 0 <= y_6 <= 1
 0 <= x_6_1 <= 1
 0 <= x_6_5 <= 1
 0 <= y_10 <= 1
 0 <= x_10_1 <= 1
 0 <= x_10_4 <= 1
 0 <= y_81 <= 1
 0 <= x_81_2 <= 1
 0 <= x_81_3 <= 1
 0 <= y_39 <= 1
 0 <= x_39_1 <= 1
 0 <= x_39_2 <= 1
 0 <= y_36 <= 1
 0 <= x_36_2 <= 1
 0 <= x_36_5 <= 1
 0 <= y_24 <= 1
 0 <= x_24_2 <= 1
 0 <= x_24_3 <= 1
 0 <= y_91 <= 1
 0 <= x_91_1 <= 1
 0 <= x_91_2 <= 1
 0 <= y_3 <= 1
 0 <= x_3_1 <= 1
 0 <= x_3_4 <= 1
 0 <= y_23 <= 1
 0 <= x_23_1 <= 1
 0 <= x_23_4 <= 1
 0 <= y_78 <= 1
 0 <= x_78_2 <= 1
 0 <= x_78_3 <= 1
 0 <= y_43 <= 1
 0 <= x_43_4 <= 1
 0 <= x_43_5 <= 1
 0 <= y_63 <= 1
 0 <= x_63_5 <= 1
 0 <= y_13 <= 1
 0 <= x_13_1 <= 1
 0 <= x_13_4 <= 1
 0 <= y_53 <= 1
 0 <= x_53_1 <= 1
 0 <= y_33 <= 1
 0 <= x_33_5 <= 1
 0 <= y_21 <= 1
 0 <= x_21_2 <= 1
 0 <= y_28 <= 1
 0 <= x_28_1 <= 1
 0 <= y_68 <= 1
 0 <= x_68_4 <= 1
 0 <= y_72 <= 1
 0 <= x_72_3 <= 1
 0 <= y_58 <= 1
 0 <= x_58_2 <= 1
 0 <= y_44 <= 1
 0 <= x_44_2 <= 1
 0 <= x_44_3 <= 1
End
